language Essence 1.3

letting bot_end be [1524, 97, 1449, 1, 1500, 24, 1527, 0, 126, 50, 172, 18, 151; int(1..13)]
letting bot_start be [79, 1450, 4, 1448, 173, 1429, 148, 1469, 1523, 1547, 1525, 1527, 1524; int(1..13)]
letting buffer_col be 2
letting buffer_row be 2
letting corridor_size be 1
letting n_shelves_col be 7
letting n_shelves_row be 29
letting shelf_col_size be 2
letting shelf_row_size be 1
